
Gurobi 10.0.3 (linux64, gurobi_cl) logging started Thu Nov  2 11:33:58 2023

Set parameter Username
Set parameter TimeLimit to value 3600
Set parameter LogFile to value "RCPSP_56.log"
Set parameter Threads to value 32
Academic license - for non-commercial use only - expires 2024-10-30
Using license file /home/jrivera6/gurobi-licenses/v1003/compute-0-35/gurobi.lic

Gurobi Optimizer version 10.0.3 build v10.0.3rc0 (linux64)
Copyright (c) 2023, Gurobi Optimization, LLC

Read MPS format model from file RCPSP_56.mps
Reading time = 0.01 seconds
RCPSP_56: 5329 rows, 2080 columns, 17044 nonzeros

CPU model: Intel(R) Xeon(R) Gold 6130 CPU @ 2.10GHz, instruction set [SSE2|AVX|AVX2|AVX512]
Thread count: 32 physical cores, 32 logical processors, using up to 32 threads

Optimize a model with 5329 rows, 2080 columns and 17044 nonzeros
Model fingerprint: 0x2b94e46c
Variable types: 32 continuous, 2048 integer (2048 binary)
Coefficient statistics:
  Matrix range     [1e+00, 1e+02]
  Objective range  [1e+00, 1e+00]
  Bounds range     [1e+00, 1e+00]
  RHS range        [1e+00, 1e+02]
Presolve removed 2394 rows and 869 columns
Presolve time: 0.18s
Presolved: 2935 rows, 1211 columns, 9787 nonzeros
Variable types: 31 continuous, 1180 integer (1180 binary)

Root relaxation: objective 3.500000e+01, 465 iterations, 0.01 seconds (0.00 work units)

    Nodes    |    Current Node    |     Objective Bounds      |     Work
 Expl Unexpl |  Obj  Depth IntInf | Incumbent    BestBd   Gap | It/Node Time

     0     0   35.00000    0   10          -   35.00000      -     -    0s
     0     0   35.00000    0   29          -   35.00000      -     -    0s
     0     0   35.00000    0   47          -   35.00000      -     -    0s
     0     0   35.00000    0    6          -   35.00000      -     -    0s
     0     0   37.00000    0   50          -   37.00000      -     -    0s
     0     0   37.00000    0   43          -   37.00000      -     -    1s
     0     0   37.00000    0   62          -   37.00000      -     -    1s
     0     0   37.00000    0   57          -   37.00000      -     -    1s
H    0     0                      47.0000000   37.00000  21.3%     -    1s
     0     0   37.00000    0   56   47.00000   37.00000  21.3%     -    1s
     0     0   37.00000    0   86   47.00000   37.00000  21.3%     -    1s
     0     0   37.00000    0  101   47.00000   37.00000  21.3%     -    1s
H    0     0                      45.0000000   37.00000  17.8%     -    1s
     0     0   37.00000    0   27   45.00000   37.00000  17.8%     -    1s
H    0     0                      38.0000000   37.00000  2.63%     -    2s
     0     0   37.00000    0   15   38.00000   37.00000  2.63%     -    4s
H    0     0                      37.0000000   37.00000  0.00%     -    4s
     0     0   37.00000    0   15   37.00000   37.00000  0.00%     -    4s

Explored 1 nodes (4019 simplex iterations) in 4.89 seconds (0.47 work units)
Thread count was 32 (of 32 available processors)

Solution count 4: 37 38 45 47 

Optimal solution found (tolerance 1.00e-04)
Best objective 3.700000000000e+01, best bound 3.700000000000e+01, gap 0.0000%

Wrote result file 'RCPSP_56.sol'

